(declare-const p3 Real)
(declare-const p5 Real)
(declare-const p1 Real)
(declare-const p4 Real)
(declare-const fee_bl Real)
(declare-const income Real)
(declare-const p2 Real)
(assert (= p1 (* 0.0222 (ite (> income 10000) 10000 income))))
(assert (= p2 (ite (> income 10000) (* 0.0296 (- (ite (> income 25000) 25000 income) 10000)) 0)))
(assert (= p3 (ite (> income 25000) (* 0.0333 (- (ite (> income 40000) 40000 income) 25000)) 0)))
(assert (= p4 (ite (> income 40000) (* 0.0444 (- (ite (> income 60000) 60000 income) 40000)) 0)))
(assert (= p5 (ite (> income 60000) (* 0.0482 (- income 60000)) 0)))
(assert (= fee_bl (+ (+ (+ (+ p1 p2) p3) p4) p5)))